c 3 2 ?
p cnf 4 10
-2,3,0
-1,4,0
-2,4,0
-4,-2,0
-4,-1,0
1,1,0
4,4,0
-4,-3,0
-1,-4,0
3,3,0
c 4 2 ?
p cnf 4 10
2,1,0
-4,-1,0
1,-3,0
2,-3,0
1,-2,0
3,-2,0
3,-3,0
3,-2,0
2,-3,0
-3,3,0
c 5 2 ?
p cnf 4 10
3,1,0
-2,-2,0
3,2,0
-1,-1,0
4,2,0
-2,2,0
-2,-1,0
-2,-2,0
3,-2,0
-2,4,0